100
100
99
96
93
93
93
92
92
91
90
89
88
88
88
87
87
86
84
84
82
81
80
80
80
79
79
79
79
76
75
75
75
75
75
74
74
73
71
68
64
62
61
61
61
60
58
58
58
58
57
57
57
55
54
53
52
51
51
51
50
50
47
45
44
41
40
39
39
39
38
36
36
35
35
34
33
32
31
30
30
29
29
29
28
24
22
21
19
19
18
10
9
8
8
7
6
5
5
4
3
2
